p cnf 15 27
12 0
9 11 -7 7 0
1 14 0
-6 -14 -1 0
-5 -4 0
-8 0
-7 13 0
1 10 -12 15 0
8 10 4 -1 0
11 -13 -10 0
-3 0
1 -12 0
-4 13 -9 0
-11 13 0
-8 1 12 7 0
-8 8 3 0
-13 15 0
-15 10 14 6 0
14 0
4 -12 -9 0
2 -5 -2 14 0
2 -1 -10 -9 0
11 -9 0
6 0
9 -13 12 0
3 13 0
1 13 -1 9 0
